p cnf 196 1140
1 -86 0
1 -87 0
86 -86 0
87 -87 0
18 -92 0
18 -93 0
92 -92 0
93 -93 0
35 -98 0
35 -99 0
98 -98 0
99 -99 0
52 -104 0
52 -105 0
104 -104 0
105 -105 0
69 -110 0
69 -111 0
110 -110 0
111 -111 0
2 -86 0
2 -87 0
86 -86 0
87 -87 0
19 -92 0
19 -93 0
92 -92 0
93 -93 0
36 -98 0
36 -99 0
98 -98 0
99 -99 0
53 -104 0
53 -105 0
104 -104 0
105 -105 0
70 -110 0
70 -111 0
110 -110 0
111 -111 0
3 -86 0
3 -87 0
86 -86 0
87 -87 0
20 -92 0
20 -93 0
92 -92 0
93 -93 0
37 -98 0
37 -99 0
98 -98 0
99 -99 0
54 -104 0
54 -105 0
104 -104 0
105 -105 0
71 -110 0
71 -111 0
110 -110 0
111 -111 0
4 -86 0
4 -87 0
86 -86 0
87 -87 0
21 -92 0
21 -93 0
92 -92 0
93 -93 0
38 -98 0
38 -99 0
98 -98 0
99 -99 0
55 -104 0
55 -105 0
104 -104 0
105 -105 0
72 -110 0
72 -111 0
110 -110 0
111 -111 0
5 -86 0
5 -87 0
86 -86 0
87 -87 0
22 -92 0
22 -93 0
92 -92 0
93 -93 0
39 -98 0
39 -99 0
98 -98 0
99 -99 0
56 -104 0
56 -105 0
104 -104 0
105 -105 0
73 -110 0
73 -111 0
110 -110 0
111 -111 0
6 -116 -86 0
-6 116 -86 0
6 116 -87 0
-6 -116 -87 0
23 -116 -92 0
-23 116 -92 0
23 116 -93 0
-23 -116 -93 0
40 -116 -98 0
-40 116 -98 0
40 116 -99 0
-40 -116 -99 0
57 -116 -104 0
-57 116 -104 0
57 116 -105 0
-57 -116 -105 0
74 -116 -110 0
-74 116 -110 0
74 116 -111 0
-74 -116 -111 0
7 -117 -86 0
-7 117 -86 0
7 117 -87 0
-7 -117 -87 0
24 -117 -92 0
-24 117 -92 0
24 117 -93 0
-24 -117 -93 0
41 -117 -98 0
-41 117 -98 0
41 117 -99 0
-41 -117 -99 0
58 -117 -104 0
-58 117 -104 0
58 117 -105 0
-58 -117 -105 0
75 -117 -110 0
-75 117 -110 0
75 117 -111 0
-75 -117 -111 0
8 -86 0
8 -87 0
86 -86 0
87 -87 0
25 -92 0
25 -93 0
92 -92 0
93 -93 0
42 -98 0
42 -99 0
98 -98 0
99 -99 0
59 -104 0
59 -105 0
104 -104 0
105 -105 0
76 -110 0
76 -111 0
110 -110 0
111 -111 0
9 -86 0
9 -87 0
86 -86 0
87 -87 0
26 -92 0
26 -93 0
92 -92 0
93 -93 0
43 -98 0
43 -99 0
98 -98 0
99 -99 0
60 -104 0
60 -105 0
104 -104 0
105 -105 0
77 -110 0
77 -111 0
110 -110 0
111 -111 0
10 -86 0
10 -87 0
86 -86 0
87 -87 0
27 -92 0
27 -93 0
92 -92 0
93 -93 0
44 -98 0
44 -99 0
98 -98 0
99 -99 0
61 -104 0
61 -105 0
104 -104 0
105 -105 0
78 -110 0
78 -111 0
110 -110 0
111 -111 0
11 -86 0
11 -87 0
86 -86 0
87 -87 0
28 -92 0
28 -93 0
92 -92 0
93 -93 0
45 -98 0
45 -99 0
98 -98 0
99 -99 0
62 -104 0
62 -105 0
104 -104 0
105 -105 0
79 -110 0
79 -111 0
110 -110 0
111 -111 0
12 -86 0
12 -87 0
86 -86 0
87 -87 0
29 -92 0
29 -93 0
92 -92 0
93 -93 0
46 -98 0
46 -99 0
98 -98 0
99 -99 0
63 -104 0
63 -105 0
104 -104 0
105 -105 0
80 -110 0
80 -111 0
110 -110 0
111 -111 0
-13 -86 0
-13 -87 0
86 -86 0
87 -87 0
-30 -92 0
-30 -93 0
92 -92 0
93 -93 0
-47 -98 0
-47 -99 0
98 -98 0
99 -99 0
-64 -104 0
-64 -105 0
104 -104 0
105 -105 0
-81 -110 0
-81 -111 0
110 -110 0
111 -111 0
14 -86 0
14 -87 0
86 -86 0
87 -87 0
31 -92 0
31 -93 0
92 -92 0
93 -93 0
48 -98 0
48 -99 0
98 -98 0
99 -99 0
65 -104 0
65 -105 0
104 -104 0
105 -105 0
82 -110 0
82 -111 0
110 -110 0
111 -111 0
15 -86 0
15 -87 0
86 -86 0
87 -87 0
32 -92 0
32 -93 0
92 -92 0
93 -93 0
49 -98 0
49 -99 0
98 -98 0
99 -99 0
66 -104 0
66 -105 0
104 -104 0
105 -105 0
83 -110 0
83 -111 0
110 -110 0
111 -111 0
-16 -86 0
-16 -87 0
86 -86 0
87 -87 0
-33 -92 0
-33 -93 0
92 -92 0
93 -93 0
-50 -98 0
-50 -99 0
98 -98 0
99 -99 0
-67 -104 0
-67 -105 0
104 -104 0
105 -105 0
-84 -110 0
-84 -111 0
110 -110 0
111 -111 0
-17 -86 0
-17 -87 0
86 -86 0
87 -87 0
-34 -92 0
-34 -93 0
92 -92 0
93 -93 0
-51 -98 0
-51 -99 0
98 -98 0
99 -99 0
-68 -104 0
-68 -105 0
104 -104 0
105 -105 0
-85 -110 0
-85 -111 0
110 -110 0
111 -111 0
-167 86 0
167 -86 0
-168 87 0
167 -87 0
-167 -86 0
-168 -87 0
-173 86 167 0
173 -86 0
173 -167 0
-174 87 168 0
174 -87 0
174 -168 0
-173 -92 0
-174 -93 0
-179 92 173 0
179 -92 0
179 -173 0
-180 93 174 0
180 -93 0
180 -174 0
-179 -98 0
-180 -99 0
-185 98 179 0
185 -98 0
185 -179 0
-186 99 180 0
186 -99 0
186 -180 0
-185 -104 0
-186 -105 0
-191 104 185 0
191 -104 0
191 -185 0
-192 105 186 0
192 -105 0
192 -186 0
-191 -110 0
-192 -111 0
191 0
192 0
1 -118 -88 0
-1 118 -88 0
1 118 -89 0
-1 -118 -89 0
18 -118 -94 0
-18 118 -94 0
18 118 -95 0
-18 -118 -95 0
35 -118 -100 0
-35 118 -100 0
35 118 -101 0
-35 -118 -101 0
52 -118 -106 0
-52 118 -106 0
52 118 -107 0
-52 -118 -107 0
69 -118 -112 0
-69 118 -112 0
69 118 -113 0
-69 -118 -113 0
2 -88 0
2 -89 0
88 -88 0
89 -89 0
19 -94 0
19 -95 0
94 -94 0
95 -95 0
36 -100 0
36 -101 0
100 -100 0
101 -101 0
53 -106 0
53 -107 0
106 -106 0
107 -107 0
70 -112 0
70 -113 0
112 -112 0
113 -113 0
3 -88 0
3 -89 0
88 -88 0
89 -89 0
20 -94 0
20 -95 0
94 -94 0
95 -95 0
37 -100 0
37 -101 0
100 -100 0
101 -101 0
54 -106 0
54 -107 0
106 -106 0
107 -107 0
71 -112 0
71 -113 0
112 -112 0
113 -113 0
4 -88 0
4 -89 0
88 -88 0
89 -89 0
21 -94 0
21 -95 0
94 -94 0
95 -95 0
38 -100 0
38 -101 0
100 -100 0
101 -101 0
55 -106 0
55 -107 0
106 -106 0
107 -107 0
72 -112 0
72 -113 0
112 -112 0
113 -113 0
5 -119 -88 0
-5 119 -88 0
5 119 -89 0
-5 -119 -89 0
22 -119 -94 0
-22 119 -94 0
22 119 -95 0
-22 -119 -95 0
39 -119 -100 0
-39 119 -100 0
39 119 -101 0
-39 -119 -101 0
56 -119 -106 0
-56 119 -106 0
56 119 -107 0
-56 -119 -107 0
73 -119 -112 0
-73 119 -112 0
73 119 -113 0
-73 -119 -113 0
6 -120 -88 0
-6 120 -88 0
6 120 -89 0
-6 -120 -89 0
23 -120 -94 0
-23 120 -94 0
23 120 -95 0
-23 -120 -95 0
40 -120 -100 0
-40 120 -100 0
40 120 -101 0
-40 -120 -101 0
57 -120 -106 0
-57 120 -106 0
57 120 -107 0
-57 -120 -107 0
74 -120 -112 0
-74 120 -112 0
74 120 -113 0
-74 -120 -113 0
7 -121 -88 0
-7 121 -88 0
7 121 -89 0
-7 -121 -89 0
24 -121 -94 0
-24 121 -94 0
24 121 -95 0
-24 -121 -95 0
41 -121 -100 0
-41 121 -100 0
41 121 -101 0
-41 -121 -101 0
58 -121 -106 0
-58 121 -106 0
58 121 -107 0
-58 -121 -107 0
75 -121 -112 0
-75 121 -112 0
75 121 -113 0
-75 -121 -113 0
8 -88 0
8 -89 0
88 -88 0
89 -89 0
25 -94 0
25 -95 0
94 -94 0
95 -95 0
42 -100 0
42 -101 0
100 -100 0
101 -101 0
59 -106 0
59 -107 0
106 -106 0
107 -107 0
76 -112 0
76 -113 0
112 -112 0
113 -113 0
9 -88 0
9 -89 0
88 -88 0
89 -89 0
26 -94 0
26 -95 0
94 -94 0
95 -95 0
43 -100 0
43 -101 0
100 -100 0
101 -101 0
60 -106 0
60 -107 0
106 -106 0
107 -107 0
77 -112 0
77 -113 0
112 -112 0
113 -113 0
10 -122 -88 0
-10 122 -88 0
10 122 -89 0
-10 -122 -89 0
27 -122 -94 0
-27 122 -94 0
27 122 -95 0
-27 -122 -95 0
44 -122 -100 0
-44 122 -100 0
44 122 -101 0
-44 -122 -101 0
61 -122 -106 0
-61 122 -106 0
61 122 -107 0
-61 -122 -107 0
78 -122 -112 0
-78 122 -112 0
78 122 -113 0
-78 -122 -113 0
11 -88 0
11 -89 0
88 -88 0
89 -89 0
28 -94 0
28 -95 0
94 -94 0
95 -95 0
45 -100 0
45 -101 0
100 -100 0
101 -101 0
62 -106 0
62 -107 0
106 -106 0
107 -107 0
79 -112 0
79 -113 0
112 -112 0
113 -113 0
12 -88 0
12 -89 0
88 -88 0
89 -89 0
29 -94 0
29 -95 0
94 -94 0
95 -95 0
46 -100 0
46 -101 0
100 -100 0
101 -101 0
63 -106 0
63 -107 0
106 -106 0
107 -107 0
80 -112 0
80 -113 0
112 -112 0
113 -113 0
13 -123 -88 0
-13 123 -88 0
13 123 -89 0
-13 -123 -89 0
30 -123 -94 0
-30 123 -94 0
30 123 -95 0
-30 -123 -95 0
47 -123 -100 0
-47 123 -100 0
47 123 -101 0
-47 -123 -101 0
64 -123 -106 0
-64 123 -106 0
64 123 -107 0
-64 -123 -107 0
81 -123 -112 0
-81 123 -112 0
81 123 -113 0
-81 -123 -113 0
14 -88 0
14 -89 0
88 -88 0
89 -89 0
31 -94 0
31 -95 0
94 -94 0
95 -95 0
48 -100 0
48 -101 0
100 -100 0
101 -101 0
65 -106 0
65 -107 0
106 -106 0
107 -107 0
82 -112 0
82 -113 0
112 -112 0
113 -113 0
15 -124 -88 0
-15 124 -88 0
15 124 -89 0
-15 -124 -89 0
32 -124 -94 0
-32 124 -94 0
32 124 -95 0
-32 -124 -95 0
49 -124 -100 0
-49 124 -100 0
49 124 -101 0
-49 -124 -101 0
66 -124 -106 0
-66 124 -106 0
66 124 -107 0
-66 -124 -107 0
83 -124 -112 0
-83 124 -112 0
83 124 -113 0
-83 -124 -113 0
16 -125 -88 0
-16 125 -88 0
16 125 -89 0
-16 -125 -89 0
33 -125 -94 0
-33 125 -94 0
33 125 -95 0
-33 -125 -95 0
50 -125 -100 0
-50 125 -100 0
50 125 -101 0
-50 -125 -101 0
67 -125 -106 0
-67 125 -106 0
67 125 -107 0
-67 -125 -107 0
84 -125 -112 0
-84 125 -112 0
84 125 -113 0
-84 -125 -113 0
17 -126 -88 0
-17 126 -88 0
17 126 -89 0
-17 -126 -89 0
34 -126 -94 0
-34 126 -94 0
34 126 -95 0
-34 -126 -95 0
51 -126 -100 0
-51 126 -100 0
51 126 -101 0
-51 -126 -101 0
68 -126 -106 0
-68 126 -106 0
68 126 -107 0
-68 -126 -107 0
85 -126 -112 0
-85 126 -112 0
85 126 -113 0
-85 -126 -113 0
-169 88 0
169 -88 0
-170 89 0
169 -89 0
-169 -88 0
-170 -89 0
-175 88 169 0
175 -88 0
175 -169 0
-176 89 170 0
176 -89 0
176 -170 0
-175 -94 0
-176 -95 0
-181 94 175 0
181 -94 0
181 -175 0
-182 95 176 0
182 -95 0
182 -176 0
-181 -100 0
-182 -101 0
-187 100 181 0
187 -100 0
187 -181 0
-188 101 182 0
188 -101 0
188 -182 0
-187 -106 0
-188 -107 0
-193 106 187 0
193 -106 0
193 -187 0
-194 107 188 0
194 -107 0
194 -188 0
-193 -112 0
-194 -113 0
193 0
194 0
-1 -90 0
-1 -91 0
90 -90 0
91 -91 0
-18 -96 0
-18 -97 0
96 -96 0
97 -97 0
-35 -102 0
-35 -103 0
102 -102 0
103 -103 0
-52 -108 0
-52 -109 0
108 -108 0
109 -109 0
-69 -114 0
-69 -115 0
114 -114 0
115 -115 0
2 -90 0
2 -91 0
90 -90 0
91 -91 0
19 -96 0
19 -97 0
96 -96 0
97 -97 0
36 -102 0
36 -103 0
102 -102 0
103 -103 0
53 -108 0
53 -109 0
108 -108 0
109 -109 0
70 -114 0
70 -115 0
114 -114 0
115 -115 0
3 -90 0
3 -91 0
90 -90 0
91 -91 0
20 -96 0
20 -97 0
96 -96 0
97 -97 0
37 -102 0
37 -103 0
102 -102 0
103 -103 0
54 -108 0
54 -109 0
108 -108 0
109 -109 0
71 -114 0
71 -115 0
114 -114 0
115 -115 0
4 -90 0
4 -91 0
90 -90 0
91 -91 0
21 -96 0
21 -97 0
96 -96 0
97 -97 0
38 -102 0
38 -103 0
102 -102 0
103 -103 0
55 -108 0
55 -109 0
108 -108 0
109 -109 0
72 -114 0
72 -115 0
114 -114 0
115 -115 0
5 -90 0
5 -91 0
90 -90 0
91 -91 0
22 -96 0
22 -97 0
96 -96 0
97 -97 0
39 -102 0
39 -103 0
102 -102 0
103 -103 0
56 -108 0
56 -109 0
108 -108 0
109 -109 0
73 -114 0
73 -115 0
114 -114 0
115 -115 0
6 -127 -90 0
-6 127 -90 0
6 127 -91 0
-6 -127 -91 0
23 -127 -96 0
-23 127 -96 0
23 127 -97 0
-23 -127 -97 0
40 -127 -102 0
-40 127 -102 0
40 127 -103 0
-40 -127 -103 0
57 -127 -108 0
-57 127 -108 0
57 127 -109 0
-57 -127 -109 0
74 -127 -114 0
-74 127 -114 0
74 127 -115 0
-74 -127 -115 0
7 -128 -90 0
-7 128 -90 0
7 128 -91 0
-7 -128 -91 0
24 -128 -96 0
-24 128 -96 0
24 128 -97 0
-24 -128 -97 0
41 -128 -102 0
-41 128 -102 0
41 128 -103 0
-41 -128 -103 0
58 -128 -108 0
-58 128 -108 0
58 128 -109 0
-58 -128 -109 0
75 -128 -114 0
-75 128 -114 0
75 128 -115 0
-75 -128 -115 0
8 -129 -90 0
-8 129 -90 0
8 129 -91 0
-8 -129 -91 0
25 -129 -96 0
-25 129 -96 0
25 129 -97 0
-25 -129 -97 0
42 -129 -102 0
-42 129 -102 0
42 129 -103 0
-42 -129 -103 0
59 -129 -108 0
-59 129 -108 0
59 129 -109 0
-59 -129 -109 0
76 -129 -114 0
-76 129 -114 0
76 129 -115 0
-76 -129 -115 0
9 -130 -90 0
-9 130 -90 0
9 130 -91 0
-9 -130 -91 0
26 -130 -96 0
-26 130 -96 0
26 130 -97 0
-26 -130 -97 0
43 -130 -102 0
-43 130 -102 0
43 130 -103 0
-43 -130 -103 0
60 -130 -108 0
-60 130 -108 0
60 130 -109 0
-60 -130 -109 0
77 -130 -114 0
-77 130 -114 0
77 130 -115 0
-77 -130 -115 0
10 -131 -90 0
-10 131 -90 0
10 131 -91 0
-10 -131 -91 0
27 -131 -96 0
-27 131 -96 0
27 131 -97 0
-27 -131 -97 0
44 -131 -102 0
-44 131 -102 0
44 131 -103 0
-44 -131 -103 0
61 -131 -108 0
-61 131 -108 0
61 131 -109 0
-61 -131 -109 0
78 -131 -114 0
-78 131 -114 0
78 131 -115 0
-78 -131 -115 0
11 -132 -90 0
-11 132 -90 0
11 132 -91 0
-11 -132 -91 0
28 -132 -96 0
-28 132 -96 0
28 132 -97 0
-28 -132 -97 0
45 -132 -102 0
-45 132 -102 0
45 132 -103 0
-45 -132 -103 0
62 -132 -108 0
-62 132 -108 0
62 132 -109 0
-62 -132 -109 0
79 -132 -114 0
-79 132 -114 0
79 132 -115 0
-79 -132 -115 0
12 -133 -90 0
-12 133 -90 0
12 133 -91 0
-12 -133 -91 0
29 -133 -96 0
-29 133 -96 0
29 133 -97 0
-29 -133 -97 0
46 -133 -102 0
-46 133 -102 0
46 133 -103 0
-46 -133 -103 0
63 -133 -108 0
-63 133 -108 0
63 133 -109 0
-63 -133 -109 0
80 -133 -114 0
-80 133 -114 0
80 133 -115 0
-80 -133 -115 0
13 -90 0
13 -91 0
90 -90 0
91 -91 0
30 -96 0
30 -97 0
96 -96 0
97 -97 0
47 -102 0
47 -103 0
102 -102 0
103 -103 0
64 -108 0
64 -109 0
108 -108 0
109 -109 0
81 -114 0
81 -115 0
114 -114 0
115 -115 0
14 -134 -90 0
-14 134 -90 0
14 134 -91 0
-14 -134 -91 0
31 -134 -96 0
-31 134 -96 0
31 134 -97 0
-31 -134 -97 0
48 -134 -102 0
-48 134 -102 0
48 134 -103 0
-48 -134 -103 0
65 -134 -108 0
-65 134 -108 0
65 134 -109 0
-65 -134 -109 0
82 -134 -114 0
-82 134 -114 0
82 134 -115 0
-82 -134 -115 0
15 -135 -90 0
-15 135 -90 0
15 135 -91 0
-15 -135 -91 0
32 -135 -96 0
-32 135 -96 0
32 135 -97 0
-32 -135 -97 0
49 -135 -102 0
-49 135 -102 0
49 135 -103 0
-49 -135 -103 0
66 -135 -108 0
-66 135 -108 0
66 135 -109 0
-66 -135 -109 0
83 -135 -114 0
-83 135 -114 0
83 135 -115 0
-83 -135 -115 0
16 -90 0
16 -91 0
90 -90 0
91 -91 0
33 -96 0
33 -97 0
96 -96 0
97 -97 0
50 -102 0
50 -103 0
102 -102 0
103 -103 0
67 -108 0
67 -109 0
108 -108 0
109 -109 0
84 -114 0
84 -115 0
114 -114 0
115 -115 0
17 -90 0
17 -91 0
90 -90 0
91 -91 0
34 -96 0
34 -97 0
96 -96 0
97 -97 0
51 -102 0
51 -103 0
102 -102 0
103 -103 0
68 -108 0
68 -109 0
108 -108 0
109 -109 0
85 -114 0
85 -115 0
114 -114 0
115 -115 0
-171 90 0
171 -90 0
-172 91 0
171 -91 0
-171 -90 0
-172 -91 0
-177 90 171 0
177 -90 0
177 -171 0
-178 91 172 0
178 -91 0
178 -172 0
-177 -96 0
-178 -97 0
-183 96 177 0
183 -96 0
183 -177 0
-184 97 178 0
184 -97 0
184 -178 0
-183 -102 0
-184 -103 0
-189 102 183 0
189 -102 0
189 -183 0
-190 103 184 0
190 -103 0
190 -184 0
-189 -108 0
-190 -109 0
-195 108 189 0
195 -108 0
195 -189 0
-196 109 190 0
196 -109 0
196 -190 0
-195 -114 0
-196 -115 0
195 0
196 0
